data/solutions/recovery/wellformed/intermediate/binding/wellformed_intermediate_instance73/30.sol
Elapsed time: 0.05
Upper bound: 4574.0
Planning weighted value: 203602867.0
C[0]=4574.0
C[1]=4562.0
C[2]=4538.0
C[3]=4525.0
C[4]=4422.0
C[5]=4348.0
C[6]=4312.0
C[7]=4227.0
C[8]=3812.0
C[9]=3094.0
C[10]=3094.0
C[11]=3089.0
C[12]=2635.0
C[13]=1828.0
C[14]=1502.0
C[15]=0.0
y[0]=0
y[1]=7
y[2]=10
y[3]=4
y[4]=2
y[5]=9
y[6]=8
y[7]=1
y[8]=8
y[9]=6
y[10]=8
y[11]=14
y[12]=3
y[13]=8
y[14]=8
y[15]=5
y[16]=4
y[17]=1
y[18]=10
y[19]=7
y[20]=2
y[21]=2
y[22]=9
y[23]=9
y[24]=4
y[25]=11
y[26]=5
y[27]=12
y[28]=13
y[29]=14
y[30]=13
y[31]=4
y[32]=11
y[33]=2
y[34]=7
y[35]=13
y[36]=3
y[37]=3
y[38]=12
y[39]=11
y[40]=0
y[41]=1
y[42]=4
y[43]=4
y[44]=6
y[45]=11
y[46]=7
y[47]=1
y[48]=5
y[49]=11
y[50]=7
y[51]=12
y[52]=5
y[53]=13
y[54]=8
y[55]=3
y[56]=5
y[57]=4
y[58]=0
y[59]=8
y[60]=8
y[61]=6
y[62]=1
y[63]=14
y[64]=9
y[65]=10
y[66]=1
y[67]=5
y[68]=9
y[69]=5
y[70]=4
y[71]=5
y[72]=3
y[73]=14
y[74]=0
y[75]=10
y[76]=9
y[77]=4
y[78]=11
y[79]=1
y[80]=3
y[81]=0
y[82]=12
y[83]=14
y[84]=1
y[85]=0
y[86]=12
y[87]=0
y[88]=2
y[89]=2
y[90]=10
y[91]=8
y[92]=12
y[93]=8
y[94]=8
y[95]=4
y[96]=9
y[97]=6
y[98]=5
y[99]=11
y[100]=6
y[101]=8
y[102]=1
y[103]=3
y[104]=2
y[105]=7
y[106]=5
y[107]=3
